(declare-sort $$unsorted 0)
(declare-fun tptp.op ($$unsorted $$unsorted) $$unsorted)
(assert (forall ((X0 $$unsorted) (X1 $$unsorted) (X2 $$unsorted) (X3 $$unsorted) (X4 $$unsorted)) (= (tptp.op X0 (tptp.op X1 X0)) (tptp.op (tptp.op X2 X3) X1))))
(assert (not (forall ((X0 $$unsorted) (X1 $$unsorted) (X2 $$unsorted) (X3 $$unsorted) (X4 $$unsorted)) (= (tptp.op X0 (tptp.op X1 X0)) (tptp.op (tptp.op X2 X3) X4)))))
(set-info :filename Equation4465_implies_Equation4468)
(check-sat-assuming ( true ))
